SECTION Graph
Nodes 583
Edges 582

E 113 223 13
E 223 344 13
E 344 476 13
E 476 616 13
E 616 746 13
E 746 871 13
E 871 1001 13
E 1001 1135 13
E 1135 1136 5
E 1136 1274 13
E 1274 1412 13
E 1412 1539 13
E 1539 1664 13
E 1664 1798 13
E 1798 1936 13
E 1936 2074 13
E 2074 2206 13
E 2206 2338 13
E 2338 2479 13
E 2479 2622 13
E 2622 2765 13
E 2765 2903 13
E 2903 3032 13
E 3032 3162 13
E 3162 3296 13
E 3296 3432 13
E 3432 3567 13
E 3567 3697 13
E 3697 3829 13
E 3829 3964 13
E 3964 4107 13
E 4107 4247 13
E 4246 4247 5
E 4246 4374 13
E 4374 4493 13
E 4477 4478 5
E 4478 4479 5
E 4479 4480 5
E 4480 4481 5
E 4481 4482 5
E 4482 4483 5
E 4483 4484 5
E 4484 4485 5
E 4485 4486 5
E 4486 4487 5
E 4487 4488 5
E 4488 4489 5
E 4489 4490 5
E 4490 4616 13
E 4493 4619 13
E 4516 4517 5
E 4516 4642 13
E 4517 4518 5
E 4518 4519 5
E 4519 4520 5
E 4615 4616 5
E 4615 4749 13
E 4616 4617 5
E 4617 4618 5
E 4618 4619 5
E 4642 4773 13
E 4749 4876 13
E 4763 4764 5
E 4763 4889 13
E 4764 4765 5
E 4765 4766 5
E 4766 4891 13
E 4773 4898 13
E 4871 4872 5
E 4871 4993 13
E 4872 4873 5
E 4873 4874 5
E 4874 4875 5
E 4875 4876 5
E 4889 5012 13
E 4891 4892 5
E 4892 4893 5
E 4893 4894 5
E 4894 4895 5
E 4895 4896 5
E 4896 4897 5
E 4897 4898 5
E 4898 5020 13
E 4993 5121 13
E 5006 5007 5
E 5006 5135 13
E 5007 5008 5
E 5008 5009 5
E 5009 5010 5
E 5010 5011 5
E 5011 5012 5
E 5019 5020 5
E 5019 5148 13
E 5121 5256 13
E 5135 5272 13
E 5148 5286 13
E 5256 5395 13
E 5268 5269 5
E 5269 5270 5
E 5270 5271 5
E 5271 5272 5
E 5286 5425 13
E 5395 5523 13
E 5425 5551 13
E 5523 5644 13
E 5551 5673 13
E 5644 5780 13
E 5672 5673 5
E 5672 5810 13
E 5780 5922 13
E 5810 5952 13
E 5912 5913 5
E 5912 6051 13
E 5913 5914 5
E 5914 5915 5
E 5915 5916 5
E 5916 5917 5
E 5917 5918 5
E 5918 5919 5
E 5919 5920 5
E 5920 5921 5
E 5921 5922 5
E 5922 5923 5
E 5923 5924 5
E 5924 5925 5
E 5925 6061 13
E 5952 6088 13
E 6051 6186 13
E 6061 6196 13
E 6088 6219 13
E 6181 6182 5
E 6182 6183 5
E 6183 6184 5
E 6184 6185 5
E 6185 6186 5
E 6196 6319 13
E 6219 6339 13
E 6319 6440 13
E 6339 6464 13
E 6440 6575 13
E 6464 6602 13
E 6575 6711 13
E 6602 6734 13
E 6711 6839 13
E 6734 6862 13
E 6839 6962 13
E 6862 6989 13
E 6962 6963 5
E 6963 6964 5
E 6964 6965 5
E 6964 7093 13
E 6989 7115 13
E 7093 7226 13
E 7115 7246 13
E 7226 7362 13
E 7245 7246 5
E 7245 7383 13
E 7362 7496 13
E 7383 7513 13
E 7496 7620 13
E 7513 7638 13
E 7593 7594 5
E 7593 7719 13
E 7594 7595 5
E 7595 7596 5
E 7596 7597 5
E 7620 7746 13
E 7638 7770 13
E 7719 7858 13
E 7730 7731 5
E 7731 7732 5
E 7732 7733 5
E 7733 7734 5
E 7734 7735 5
E 7735 7736 5
E 7736 7874 13
E 7746 7884 13
E 7770 7908 13
E 7858 7859 5
E 7859 8000 13
E 7874 7875 5
E 7875 7876 5
E 7876 7877 5
E 7877 7878 5
E 7877 8018 13
E 7878 7879 5
E 7879 7880 5
E 7880 7881 5
E 7881 7882 5
E 7882 7883 5
E 7883 7884 5
E 7908 8048 13
E 7966 7967 5
E 7967 7968 5
E 7968 7969 5
E 7969 7970 5
E 7970 7971 5
E 7971 7972 5
E 7972 8108 13
E 8000 8001 5
E 8001 8137 13
E 8018 8155 13
E 8048 8184 13
E 8108 8109 5
E 8109 8110 5
E 8110 8111 5
E 8111 8112 5
E 8112 8113 5
E 8113 8114 5
E 8114 8115 5
E 8115 8248 13
E 8136 8137 5
E 8136 8270 13
E 8137 8138 5
E 8138 8139 5
E 8139 8140 5
E 8140 8141 5
E 8141 8142 5
E 8142 8143 5
E 8143 8144 5
E 8144 8145 5
E 8145 8276 13
E 8155 8287 13
E 8184 8316 13
E 8248 8382 13
E 8267 8268 5
E 8268 8269 5
E 8268 8400 13
E 8269 8270 5
E 8276 8277 5
E 8277 8278 5
E 8278 8279 5
E 8279 8280 5
E 8280 8281 5
E 8281 8282 5
E 8281 8411 13
E 8282 8283 5
E 8283 8284 5
E 8284 8285 5
E 8285 8286 5
E 8286 8287 5
E 8287 8288 5
E 8287 8415 13
E 8288 8289 5
E 8289 8290 5
E 8290 8291 5
E 8291 8292 5
E 8292 8293 5
E 8293 8294 5
E 8316 8442 13
E 8380 8381 5
E 8380 8510 13
E 8381 8382 5
E 8400 8401 5
E 8401 8402 5
E 8402 8529 13
E 8410 8411 5
E 8415 8416 5
E 8442 8568 13
E 8510 8637 13
E 8521 8522 5
E 8521 8649 13
E 8522 8523 5
E 8529 8657 13
E 8568 8703 13
E 8637 8638 5
E 8638 8771 13
E 8644 8645 5
E 8644 8779 13
E 8645 8646 5
E 8646 8647 5
E 8647 8648 5
E 8648 8649 5
E 8657 8658 5
E 8658 8659 5
E 8659 8660 5
E 8660 8661 5
E 8661 8662 5
E 8662 8663 5
E 8663 8664 5
E 8664 8665 5
E 8665 8796 13
E 8681 8682 5
E 8681 8814 13
E 8682 8683 5
E 8683 8684 5
E 8684 8685 5
E 8685 8686 5
E 8703 8837 13
E 8759 8760 5
E 8759 8892 13
E 8771 8772 5
E 8772 8773 5
E 8773 8774 5
E 8774 8775 5
E 8775 8776 5
E 8776 8777 5
E 8776 8907 13
E 8777 8778 5
E 8778 8779 5
E 8796 8797 5
E 8797 8798 5
E 8798 8799 5
E 8799 8800 5
E 8800 8801 5
E 8801 8802 5
E 8802 8803 5
E 8803 8804 5
E 8804 8805 5
E 8805 8806 5
E 8806 8807 5
E 8807 8808 5
E 8808 8938 13
E 8814 8944 13
E 8837 8967 13
E 8892 9021 13
E 8907 9037 13
E 8938 8939 5
E 8939 8940 5
E 8939 9074 13
E 8940 8941 5
E 8941 8942 5
E 8942 8943 5
E 8943 8944 5
E 8967 9100 13
E 9021 9155 13
E 9037 9038 5
E 9038 9039 5
E 9039 9040 5
E 9040 9041 5
E 9041 9176 13
E 9074 9211 13
E 9100 9237 13
E 9155 9293 13
E 9175 9176 5
E 9175 9313 13
E 9176 9177 5
E 9177 9178 5
E 9178 9179 5
E 9179 9316 13
E 9211 9348 13
E 9215 9216 5
E 9215 9355 13
E 9216 9217 5
E 9217 9218 5
E 9237 9377 13
E 9293 9294 5
E 9294 9432 13
E 9307 9308 5
E 9308 9309 5
E 9309 9310 5
E 9310 9447 13
E 9313 9451 13
E 9316 9317 5
E 9317 9455 13
E 9325 9326 5
E 9325 9463 13
E 9326 9327 5
E 9327 9328 5
E 9328 9329 5
E 9329 9330 5
E 9330 9331 5
E 9331 9332 5
E 9332 9468 13
E 9337 9338 5
E 9337 9473 13
E 9338 9339 5
E 9339 9340 5
E 9340 9341 5
E 9341 9476 13
E 9346 9347 5
E 9346 9481 13
E 9347 9348 5
E 9348 9482 13
E 9353 9354 5
E 9353 9487 13
E 9354 9355 5
E 9372 9373 5
E 9372 9503 13
E 9373 9374 5
E 9374 9375 5
E 9375 9376 5
E 9376 9377 5
E 9377 9507 13
E 9419 9420 5
E 9419 9546 13
E 9432 9559 13
E 9447 9448 5
E 9448 9449 5
E 9449 9450 5
E 9450 9451 5
E 9451 9577 13
E 9455 9456 5
E 9456 9457 5
E 9456 9582 13
E 9457 9458 5
E 9458 9459 5
E 9459 9460 5
E 9460 9461 5
E 9461 9462 5
E 9462 9463 5
E 9467 9468 5
E 9467 9592 13
E 9468 9469 5
E 9469 9470 5
E 9470 9594 13
E 9473 9597 13
E 9476 9477 5
E 9477 9478 5
E 9478 9479 5
E 9479 9480 5
E 9479 9601 13
E 9480 9481 5
E 9482 9483 5
E 9483 9484 5
E 9484 9485 5
E 9485 9486 5
E 9486 9487 5
E 9499 9500 5
E 9499 9619 13
E 9500 9501 5
E 9501 9502 5
E 9502 9503 5
E 9507 9626 13
E 9522 9523 5
E 9523 9524 5
E 9524 9525 5
E 9525 9526 5
E 9526 9527 5
E 9527 9646 13
E 9535 9653 13
E 9546 9665 13
E 9559 9679 13
E 9565 9566 5
E 9565 9685 13
E 9566 9567 5
E 9567 9568 5
E 9568 9569 5
E 9569 9570 5
E 9570 9689 13
E 9577 9697 13
E 9582 9583 5
E 9583 9584 5
E 9584 9703 13
E 9590 9591 5
E 9590 9711 13
E 9591 9592 5
E 9594 9595 5
E 9595 9596 5
E 9596 9597 5
E 9597 9715 13
E 9601 9602 5
E 9602 9603 5
E 9603 9721 13
E 9615 9616 5
E 9615 9736 13
E 9616 9617 5
E 9617 9737 13
E 9619 9740 13
E 9626 9627 5
E 9627 9628 5
E 9628 9629 5
E 9629 9630 5
E 9630 9631 5
E 9631 9632 5
E 9632 9633 5
E 9633 9634 5
E 9634 9635 5
E 9635 9636 5
E 9636 9637 5
E 9637 9638 5
E 9638 9758 13
E 9646 9766 13
E 9653 9774 13
E 9658 9659 5
E 9658 9780 13
E 9659 9660 5
E 9660 9661 5
E 9661 9662 5
E 9662 9663 5
E 9663 9664 5
E 9664 9665 5
E 9665 9786 13
E 9678 9679 5
E 9678 9800 13
E 9679 9680 5
E 9680 9681 5
E 9681 9682 5
E 9682 9683 5
E 9683 9684 5
E 9684 9685 5
E 9689 9809 13
E 9697 9698 5
E 9697 9818 13
E 9703 9824 13
E 9706 9707 5
E 9707 9708 5
E 9708 9709 5
E 9709 9710 5
E 9710 9831 13
E 9711 9832 13
E 9715 9837 13
E 9721 9845 13
E 9737 9738 5
E 9738 9739 5
E 9739 9740 5
E 9740 9867 13
E 9741 9742 5
E 9741 9869 13
E 9742 9743 5
E 9743 9744 5
E 9743 9870 13
E 9744 9745 5
E 9745 9871 13
E 9758 9883 13
E 9766 9892 13
E 9770 9771 5
E 9770 9897 13
E 9771 9772 5
E 9772 9773 5
E 9773 9774 5
E 9774 9775 5
E 9775 9776 5
E 9775 9901 13
E 9776 9777 5
E 9777 9778 5
E 9778 9779 5
E 9779 9780 5
E 9786 9787 5
E 9787 9788 5
E 9788 9789 5
E 9789 9790 5
E 9790 9791 5
E 9791 9792 5
E 9792 9793 5
E 9793 9794 5
E 9794 9795 5
E 9795 9796 5
E 9796 9797 5
E 9797 9798 5
E 9798 9799 5
E 9799 9800 5
E 9809 9810 5
E 9810 9811 5
E 9811 9812 5
E 9812 9813 5
E 9813 9814 5
E 9814 9815 5
E 9815 9816 5
E 9816 9817 5
E 9817 9818 5
E 9824 9944 13
E 9831 9832 5
E 9837 9838 5
E 9845 9846 5
E 9846 9847 5
E 9847 9848 5
E 9848 9849 5
E 9849 9850 5
E 9850 9851 5
E 9851 9852 5
E 9852 9853 5
E 9853 9854 5
E 9867 9868 5
E 9868 9869 5
E 9883 10006 13
E 9892 9893 5
E 9892 10016 13
E 9893 9894 5
E 9894 9895 5
E 9895 9896 5
E 9896 9897 5
E 10006 10007 5
E 10007 10008 5
E 10008 10009 5
E 10009 10010 5
E 10010 10011 5
E 10011 10012 5
E 10012 10013 5
E 10013 10014 5
E 10014 10015 5
E 10015 10016 5
END
SECTION Terminals
T 113
T 4477
T 4520
T 4616
T 4872
T 4891
T 5020
T 5268
T 5923
T 6181
T 6965
T 7597
T 7730
T 7858
T 7874
T 7878
T 7966
T 8108
T 8137
T 8139
T 8143
T 8267
T 8276
T 8278
T 8282
T 8286
T 8294
T 8382
T 8401
T 8410
T 8416
T 8523
T 8637
T 8645
T 8647
T 8649
T 8660
T 8664
T 8686
T 8760
T 8774
T 8799
T 8807
T 8940
T 8942
T 8944
T 9037
T 9176
T 9218
T 9293
T 9307
T 9326
T 9328
T 9338
T 9347
T 9355
T 9377
T 9420
T 9450
T 9455
T 9460
T 9468
T 9476
T 9478
T 9483
T 9485
T 9487
T 9503
T 9522
T 9535
T 9566
T 9583
T 9591
T 9594
T 9596
T 9602
T 9619
T 9626
T 9633
T 9659
T 9679
T 9683
T 9698
T 9706
T 9736
T 9758
T 9779
T 9786
T 9797
T 9799
T 9809
T 9811
T 9813
T 9831
T 9838
T 9846
T 9854
T 9869
T 9870
T 9871
T 9897
T 9901
T 9944
T 10016
END
SECTION Cost
4550
END
